FourierSAT_Github_AIJ/benchmarks/MAXSAT_benchmarks/1/abrame-habet/v220/s2v220c1200-2.cnf
c Generated after 4 tries
c Graph with 220 nodes and 600 edges, Max edges:24090
c generated from an undirected graph
c to solve unweighted MaxCut
p cnf 220 1200
1 23 0
-1 -23 0
1 26 0
-1 -26 0
1 54 0
-1 -54 0
1 113 0
-1 -113 0
1 128 0
-1 -128 0
1 181 0
-1 -181 0
2 30 0
-2 -30 0
2 32 0
-2 -32 0
2 61 0
-2 -61 0
2 62 0
-2 -62 0
2 131 0
-2 -131 0
3 21 0
-3 -21 0
3 57 0
-3 -57 0
3 73 0
-3 -73 0
3 91 0
-3 -91 0
3 127 0
-3 -127 0
3 138 0
-3 -138 0
3 170 0
-3 -170 0
3 194 0
-3 -194 0
3 219 0
-3 -219 0
4 31 0
-4 -31 0
4 61 0
-4 -61 0
4 62 0
-4 -62 0
4 66 0
-4 -66 0
4 136 0
-4 -136 0
4 159 0
-4 -159 0
4 184 0
-4 -184 0
4 187 0
-4 -187 0
5 121 0
-5 -121 0
5 131 0
-5 -131 0
5 166 0
-5 -166 0
5 219 0
-5 -219 0
6 30 0
-6 -30 0
6 104 0
-6 -104 0
6 134 0
-6 -134 0
6 183 0
-6 -183 0
6 198 0
-6 -198 0
6 205 0
-6 -205 0
7 16 0
-7 -16 0
7 81 0
-7 -81 0
7 92 0
-7 -92 0
7 106 0
-7 -106 0
8 19 0
-8 -19 0
8 53 0
-8 -53 0
8 68 0
-8 -68 0
8 69 0
-8 -69 0
8 89 0
-8 -89 0
8 119 0
-8 -119 0
9 81 0
-9 -81 0
9 108 0
-9 -108 0
9 136 0
-9 -136 0
9 139 0
-9 -139 0
9 166 0
-9 -166 0
10 55 0
-10 -55 0
10 137 0
-10 -137 0
10 148 0
-10 -148 0
10 149 0
-10 -149 0
10 217 0
-10 -217 0
10 218 0
-10 -218 0
11 52 0
-11 -52 0
11 82 0
-11 -82 0
11 117 0
-11 -117 0
11 141 0
-11 -141 0
11 204 0
-11 -204 0
12 208 0
-12 -208 0
13 27 0
-13 -27 0
13 71 0
-13 -71 0
13 100 0
-13 -100 0
13 145 0
-13 -145 0
13 213 0
-13 -213 0
14 74 0
-14 -74 0
14 98 0
-14 -98 0
14 100 0
-14 -100 0
15 127 0
-15 -127 0
15 151 0
-15 -151 0
15 197 0
-15 -197 0
15 220 0
-15 -220 0
16 63 0
-16 -63 0
16 80 0
-16 -80 0
16 102 0
-16 -102 0
16 153 0
-16 -153 0
16 191 0
-16 -191 0
16 195 0
-16 -195 0
17 22 0
-17 -22 0
17 32 0
-17 -32 0
17 168 0
-17 -168 0
17 169 0
-17 -169 0
17 171 0
-17 -171 0
17 202 0
-17 -202 0
18 77 0
-18 -77 0
18 103 0
-18 -103 0
18 117 0
-18 -117 0
18 153 0
-18 -153 0
18 217 0
-18 -217 0
19 183 0
-19 -183 0
20 88 0
-20 -88 0
20 93 0
-20 -93 0
20 101 0
-20 -101 0
20 176 0
-20 -176 0
21 122 0
-21 -122 0
21 188 0
-21 -188 0
21 191 0
-21 -191 0
21 204 0
-21 -204 0
22 68 0
-22 -68 0
22 161 0
-22 -161 0
23 44 0
-23 -44 0
23 59 0
-23 -59 0
23 76 0
-23 -76 0
23 94 0
-23 -94 0
23 112 0
-23 -112 0
23 120 0
-23 -120 0
23 149 0
-23 -149 0
23 157 0
-23 -157 0
24 33 0
-24 -33 0
24 50 0
-24 -50 0
24 58 0
-24 -58 0
24 80 0
-24 -80 0
24 97 0
-24 -97 0
24 167 0
-24 -167 0
24 180 0
-24 -180 0
24 183 0
-24 -183 0
25 56 0
-25 -56 0
25 79 0
-25 -79 0
25 110 0
-25 -110 0
25 199 0
-25 -199 0
26 62 0
-26 -62 0
26 77 0
-26 -77 0
26 96 0
-26 -96 0
26 171 0
-26 -171 0
27 79 0
-27 -79 0
28 43 0
-28 -43 0
28 76 0
-28 -76 0
28 78 0
-28 -78 0
28 83 0
-28 -83 0
28 87 0
-28 -87 0
28 147 0
-28 -147 0
28 174 0
-28 -174 0
29 31 0
-29 -31 0
29 50 0
-29 -50 0
29 60 0
-29 -60 0
29 63 0
-29 -63 0
29 122 0
-29 -122 0
29 130 0
-29 -130 0
29 192 0
-29 -192 0
29 212 0
-29 -212 0
29 213 0
-29 -213 0
30 42 0
-30 -42 0
30 70 0
-30 -70 0
31 119 0
-31 -119 0
31 136 0
-31 -136 0
31 169 0
-31 -169 0
31 205 0
-31 -205 0
32 67 0
-32 -67 0
32 102 0
-32 -102 0
32 136 0
-32 -136 0
33 166 0
-33 -166 0
33 189 0
-33 -189 0
34 41 0
-34 -41 0
34 88 0
-34 -88 0
34 124 0
-34 -124 0
34 126 0
-34 -126 0
34 151 0
-34 -151 0
35 38 0
-35 -38 0
35 58 0
-35 -58 0
35 73 0
-35 -73 0
35 83 0
-35 -83 0
35 98 0
-35 -98 0
35 109 0
-35 -109 0
35 137 0
-35 -137 0
35 155 0
-35 -155 0
35 169 0
-35 -169 0
35 211 0
-35 -211 0
36 102 0
-36 -102 0
36 134 0
-36 -134 0
36 142 0
-36 -142 0
36 195 0
-36 -195 0
36 218 0
-36 -218 0
37 74 0
-37 -74 0
37 152 0
-37 -152 0
37 216 0
-37 -216 0
38 110 0
-38 -110 0
38 118 0
-38 -118 0
38 201 0
-38 -201 0
38 207 0
-38 -207 0
39 55 0
-39 -55 0
39 70 0
-39 -70 0
39 106 0
-39 -106 0
39 163 0
-39 -163 0
40 80 0
-40 -80 0
40 85 0
-40 -85 0
40 134 0
-40 -134 0
40 149 0
-40 -149 0
40 151 0
-40 -151 0
40 178 0
-40 -178 0
41 68 0
-41 -68 0
41 125 0
-41 -125 0
41 199 0
-41 -199 0
42 55 0
-42 -55 0
42 199 0
-42 -199 0
43 159 0
-43 -159 0
44 90 0
-44 -90 0
44 93 0
-44 -93 0
44 131 0
-44 -131 0
44 157 0
-44 -157 0
44 190 0
-44 -190 0
45 65 0
-45 -65 0
45 104 0
-45 -104 0
45 139 0
-45 -139 0
46 117 0
-46 -117 0
47 96 0
-47 -96 0
47 97 0
-47 -97 0
47 127 0
-47 -127 0
47 154 0
-47 -154 0
47 179 0
-47 -179 0
47 190 0
-47 -190 0
48 53 0
-48 -53 0
48 102 0
-48 -102 0
48 156 0
-48 -156 0
48 170 0
-48 -170 0
48 184 0
-48 -184 0
48 187 0
-48 -187 0
49 103 0
-49 -103 0
49 107 0
-49 -107 0
49 122 0
-49 -122 0
49 161 0
-49 -161 0
49 180 0
-49 -180 0
49 196 0
-49 -196 0
50 53 0
-50 -53 0
51 105 0
-51 -105 0
51 146 0
-51 -146 0
51 149 0
-51 -149 0
51 159 0
-51 -159 0
51 173 0
-51 -173 0
51 204 0
-51 -204 0
52 60 0
-52 -60 0
52 85 0
-52 -85 0
52 86 0
-52 -86 0
52 87 0
-52 -87 0
52 151 0
-52 -151 0
53 59 0
-53 -59 0
53 102 0
-53 -102 0
53 132 0
-53 -132 0
53 170 0
-53 -170 0
53 196 0
-53 -196 0
53 219 0
-53 -219 0
53 220 0
-53 -220 0
54 94 0
-54 -94 0
54 177 0
-54 -177 0
55 129 0
-55 -129 0
55 149 0
-55 -149 0
55 151 0
-55 -151 0
55 158 0
-55 -158 0
55 187 0
-55 -187 0
56 57 0
-56 -57 0
56 58 0
-56 -58 0
56 99 0
-56 -99 0
56 120 0
-56 -120 0
56 121 0
-56 -121 0
56 205 0
-56 -205 0
56 206 0
-56 -206 0
57 99 0
-57 -99 0
57 125 0
-57 -125 0
57 131 0
-57 -131 0
57 133 0
-57 -133 0
57 144 0
-57 -144 0
58 103 0
-58 -103 0
58 118 0
-58 -118 0
58 143 0
-58 -143 0
58 166 0
-58 -166 0
58 173 0
-58 -173 0
58 175 0
-58 -175 0
59 163 0
-59 -163 0
60 160 0
-60 -160 0
60 200 0
-60 -200 0
60 208 0
-60 -208 0
61 67 0
-61 -67 0
61 121 0
-61 -121 0
61 133 0
-61 -133 0
62 83 0
-62 -83 0
62 120 0
-62 -120 0
62 135 0
-62 -135 0
62 138 0
-62 -138 0
62 153 0
-62 -153 0
62 176 0
-62 -176 0
63 111 0
-63 -111 0
63 143 0
-63 -143 0
63 173 0
-63 -173 0
63 175 0
-63 -175 0
63 178 0
-63 -178 0
63 192 0
-63 -192 0
64 73 0
-64 -73 0
64 161 0
-64 -161 0
65 110 0
-65 -110 0
65 151 0
-65 -151 0
65 177 0
-65 -177 0
65 209 0
-65 -209 0
66 92 0
-66 -92 0
66 121 0
-66 -121 0
66 149 0
-66 -149 0
66 158 0
-66 -158 0
67 75 0
-67 -75 0
67 129 0
-67 -129 0
67 146 0
-67 -146 0
67 157 0
-67 -157 0
68 149 0
-68 -149 0
69 196 0
-69 -196 0
70 150 0
-70 -150 0
70 172 0
-70 -172 0
70 211 0
-70 -211 0
71 91 0
-71 -91 0
71 116 0
-71 -116 0
71 201 0
-71 -201 0
72 83 0
-72 -83 0
72 84 0
-72 -84 0
72 86 0
-72 -86 0
72 91 0
-72 -91 0
72 148 0
-72 -148 0
72 158 0
-72 -158 0
72 174 0
-72 -174 0
72 193 0
-72 -193 0
72 197 0
-72 -197 0
73 115 0
-73 -115 0
73 133 0
-73 -133 0
73 167 0
-73 -167 0
74 116 0
-74 -116 0
74 161 0
-74 -161 0
74 163 0
-74 -163 0
74 189 0
-74 -189 0
75 110 0
-75 -110 0
75 121 0
-75 -121 0
75 152 0
-75 -152 0
75 215 0
-75 -215 0
76 105 0
-76 -105 0
76 135 0
-76 -135 0
76 209 0
-76 -209 0
77 126 0
-77 -126 0
77 193 0
-77 -193 0
78 115 0
-78 -115 0
79 135 0
-79 -135 0
79 146 0
-79 -146 0
79 156 0
-79 -156 0
80 84 0
-80 -84 0
80 95 0
-80 -95 0
80 112 0
-80 -112 0
80 202 0
-80 -202 0
81 87 0
-81 -87 0
81 95 0
-81 -95 0
81 149 0
-81 -149 0
82 96 0
-82 -96 0
82 119 0
-82 -119 0
82 133 0
-82 -133 0
82 194 0
-82 -194 0
82 213 0
-82 -213 0
83 158 0
-83 -158 0
83 199 0
-83 -199 0
84 102 0
-84 -102 0
84 107 0
-84 -107 0
84 116 0
-84 -116 0
84 198 0
-84 -198 0
85 88 0
-85 -88 0
85 105 0
-85 -105 0
85 136 0
-85 -136 0
85 157 0
-85 -157 0
85 183 0
-85 -183 0
86 111 0
-86 -111 0
86 121 0
-86 -121 0
86 140 0
-86 -140 0
86 181 0
-86 -181 0
86 188 0
-86 -188 0
86 210 0
-86 -210 0
87 112 0
-87 -112 0
87 116 0
-87 -116 0
87 165 0
-87 -165 0
87 168 0
-87 -168 0
88 108 0
-88 -108 0
88 150 0
-88 -150 0
88 151 0
-88 -151 0
88 175 0
-88 -175 0
89 168 0
-89 -168 0
90 110 0
-90 -110 0
90 117 0
-90 -117 0
90 172 0
-90 -172 0
90 204 0
-90 -204 0
91 125 0
-91 -125 0
91 128 0
-91 -128 0
92 137 0
-92 -137 0
93 141 0
-93 -141 0
93 176 0
-93 -176 0
94 174 0
-94 -174 0
94 206 0
-94 -206 0
95 162 0
-95 -162 0
95 183 0
-95 -183 0
95 199 0
-95 -199 0
95 216 0
-95 -216 0
96 129 0
-96 -129 0
96 200 0
-96 -200 0
97 136 0
-97 -136 0
97 149 0
-97 -149 0
97 200 0
-97 -200 0
98 201 0
-98 -201 0
98 213 0
-98 -213 0
99 107 0
-99 -107 0
99 195 0
-99 -195 0
99 208 0
-99 -208 0
100 152 0
-100 -152 0
100 174 0
-100 -174 0
100 181 0
-100 -181 0
101 136 0
-101 -136 0
101 139 0
-101 -139 0
101 167 0
-101 -167 0
101 204 0
-101 -204 0
102 144 0
-102 -144 0
102 183 0
-102 -183 0
102 197 0
-102 -197 0
102 199 0
-102 -199 0
102 216 0
-102 -216 0
103 148 0
-103 -148 0
103 151 0
-103 -151 0
103 186 0
-103 -186 0
103 193 0
-103 -193 0
104 147 0
-104 -147 0
105 123 0
-105 -123 0
105 153 0
-105 -153 0
105 170 0
-105 -170 0
106 148 0
-106 -148 0
106 157 0
-106 -157 0
108 122 0
-108 -122 0
108 136 0
-108 -136 0
109 131 0
-109 -131 0
109 164 0
-109 -164 0
109 203 0
-109 -203 0
109 210 0
-109 -210 0
110 172 0
-110 -172 0
110 176 0
-110 -176 0
110 213 0
-110 -213 0
110 214 0
-110 -214 0
111 147 0
-111 -147 0
111 208 0
-111 -208 0
112 217 0
-112 -217 0
113 134 0
-113 -134 0
113 153 0
-113 -153 0
113 161 0
-113 -161 0
114 125 0
-114 -125 0
115 119 0
-115 -119 0
116 186 0
-116 -186 0
117 145 0
-117 -145 0
118 142 0
-118 -142 0
118 190 0
-118 -190 0
119 141 0
-119 -141 0
119 186 0
-119 -186 0
120 152 0
-120 -152 0
120 178 0
-120 -178 0
121 145 0
-121 -145 0
121 218 0
-121 -218 0
122 188 0
-122 -188 0
123 184 0
-123 -184 0
123 190 0
-123 -190 0
123 195 0
-123 -195 0
123 217 0
-123 -217 0
124 151 0
-124 -151 0
125 136 0
-125 -136 0
125 144 0
-125 -144 0
125 173 0
-125 -173 0
125 211 0
-125 -211 0
125 218 0
-125 -218 0
126 135 0
-126 -135 0
127 146 0
-127 -146 0
127 167 0
-127 -167 0
127 174 0
-127 -174 0
128 185 0
-128 -185 0
128 209 0
-128 -209 0
129 177 0
-129 -177 0
130 136 0
-130 -136 0
130 154 0
-130 -154 0
130 159 0
-130 -159 0
130 205 0
-130 -205 0
130 206 0
-130 -206 0
130 208 0
-130 -208 0
131 138 0
-131 -138 0
131 168 0
-131 -168 0
132 159 0
-132 -159 0
132 172 0
-132 -172 0
132 211 0
-132 -211 0
133 151 0
-133 -151 0
133 161 0
-133 -161 0
133 187 0
-133 -187 0
133 203 0
-133 -203 0
133 205 0
-133 -205 0
133 208 0
-133 -208 0
133 219 0
-133 -219 0
134 152 0
-134 -152 0
134 168 0
-134 -168 0
135 200 0
-135 -200 0
136 167 0
-136 -167 0
136 192 0
-136 -192 0
136 207 0
-136 -207 0
136 217 0
-136 -217 0
136 220 0
-136 -220 0
137 154 0
-137 -154 0
137 214 0
-137 -214 0
139 148 0
-139 -148 0
139 154 0
-139 -154 0
139 189 0
-139 -189 0
139 204 0
-139 -204 0
139 211 0
-139 -211 0
140 180 0
-140 -180 0
141 172 0
-141 -172 0
141 211 0
-141 -211 0
141 213 0
-141 -213 0
141 217 0
-141 -217 0
142 155 0
-142 -155 0
142 215 0
-142 -215 0
143 146 0
-143 -146 0
143 193 0
-143 -193 0
143 219 0
-143 -219 0
144 146 0
-144 -146 0
144 184 0
-144 -184 0
145 180 0
-145 -180 0
145 187 0
-145 -187 0
146 162 0
-146 -162 0
146 199 0
-146 -199 0
146 209 0
-146 -209 0
147 174 0
-147 -174 0
147 203 0
-147 -203 0
148 160 0
-148 -160 0
148 166 0
-148 -166 0
148 182 0
-148 -182 0
149 161 0
-149 -161 0
149 162 0
-149 -162 0
149 196 0
-149 -196 0
150 170 0
-150 -170 0
150 210 0
-150 -210 0
151 157 0
-151 -157 0
151 181 0
-151 -181 0
151 192 0
-151 -192 0
154 174 0
-154 -174 0
154 205 0
-154 -205 0
155 170 0
-155 -170 0
156 161 0
-156 -161 0
156 186 0
-156 -186 0
157 204 0
-157 -204 0
158 165 0
-158 -165 0
158 210 0
-158 -210 0
159 169 0
-159 -169 0
162 213 0
-162 -213 0
163 197 0
-163 -197 0
163 215 0
-163 -215 0
164 169 0
-164 -169 0
164 191 0
-164 -191 0
164 196 0
-164 -196 0
165 188 0
-165 -188 0
165 209 0
-165 -209 0
165 218 0
-165 -218 0
166 208 0
-166 -208 0
167 195 0
-167 -195 0
167 198 0
-167 -198 0
168 169 0
-168 -169 0
168 185 0
-168 -185 0
168 205 0
-168 -205 0
170 214 0
-170 -214 0
171 202 0
-171 -202 0
171 220 0
-171 -220 0
172 187 0
-172 -187 0
172 190 0
-172 -190 0
172 218 0
-172 -218 0
174 190 0
-174 -190 0
174 206 0
-174 -206 0
174 217 0
-174 -217 0
175 202 0
-175 -202 0
177 185 0
-177 -185 0
180 190 0
-180 -190 0
181 188 0
-181 -188 0
181 190 0
-181 -190 0
181 203 0
-181 -203 0
182 186 0
-182 -186 0
182 201 0
-182 -201 0
184 186 0
-184 -186 0
184 198 0
-184 -198 0
185 217 0
-185 -217 0
186 192 0
-186 -192 0
186 207 0
-186 -207 0
186 216 0
-186 -216 0
187 206 0
-187 -206 0
189 213 0
-189 -213 0
190 207 0
-190 -207 0
191 212 0
-191 -212 0
192 205 0
-192 -205 0
192 210 0
-192 -210 0
192 215 0
-192 -215 0
193 220 0
-193 -220 0
195 200 0
-195 -200 0
195 201 0
-195 -201 0
195 216 0
-195 -216 0
196 214 0
-196 -214 0
198 215 0
-198 -215 0
200 216 0
-200 -216 0
202 219 0
-202 -219 0
203 214 0
-203 -214 0
205 213 0
-205 -213 0
216 219 0
-216 -219 0
