FourierSAT_Github_AIJ/res/fs_1core/s2v220c1200-2.cnf.txt
o 155
o 153
o 143
